
Gurobi 6.5.2 (win64) logging started 07/22/16 21:39:15


Gurobi 6.5.2 (win64) logging started 07/22/16 21:39:15

Optimize a model with 3011 rows, 746 columns and 7716 nonzeros
Coefficient statistics:
  Matrix range    [6e-08, 1e+03]
  Objective range [1e+00, 1e+00]
  Bounds range    [1e+00, 1e+00]
  RHS range       [6e-06, 1e+03]
Presolve removed 2765 rows and 496 columns
Presolve time: 0.00s
Presolved: 246 rows, 250 columns, 1063 nonzeros
Variable types: 250 continuous, 0 integer (0 binary)

Root relaxation: objective 1.843484e+02, 261 iterations, 0.02 seconds

    Nodes    |    Current Node    |     Objective Bounds      |     Work
 Expl Unexpl |  Obj  Depth IntInf | Incumbent    BestBd   Gap | It/Node Time

*    0     0               0     184.3483657  184.34837  0.00%     -    0s

Explored 0 nodes (261 simplex iterations) in 0.02 seconds
Thread count was 8 (of 8 available processors)

Optimal solution found (tolerance 1.00e-04)
Best objective 1.843483656503e+02, best bound 1.843483656503e+02, gap 0.0%

Wrote requested result file 'H1\instance17\\Results17EC_Sol6.lp'

